(declare-const c_0 Real)
(declare-const c_1 Real)
(declare-const c_2 Real)
(declare-const c_3 Real)
(declare-const c_4 Real)
(declare-const c_5 Real)
(declare-const c_6 Real)
(declare-const c_7 Real)
(declare-const c_8 Real)
(declare-const c_9 Real)
(declare-const c_10 Real)
(declare-const c_11 Real)
(declare-const s_0 Real)
(declare-const s_1 Real)
(declare-const s_2 Real)
(declare-const s_3 Real)
(declare-const s_4 Real)
(declare-const s_5 Real)
(declare-const s_6 Real)
(declare-const s_7 Real)
(declare-const s_8 Real)
(declare-const s_9 Real)
(declare-const s_10 Real)
(declare-const s_11 Real)
(assert (forall ((t Real) (i Real) (j Real) ) (=> (and (>= (+ (* 1024 1) (* 1 t ) ) 0) (>= (+ (* 1023 1) (* (- 1) t ) ) 0) (>= (+ (* 1024 1) (* 1 i ) ) 0) (>= (+ (* 1023 1) (* (- 1) i ) ) 0) (>= (+ (* 1024 1) (* 1 j ) ) 0) (>= (+ (* 1023 1) (* (- 1) j ) ) 0) ) (>= (+ (* 1 i s_1 ) (* 1 j s_2 ) (* 1 s_0 ) (* 1 s_3 t ) ) 0) )))
(assert (forall ((t Real) (i Real) (j Real) ) (=> (and (>= (+ (* 1024 1) (* 1 t ) ) 0) (>= (+ (* 1023 1) (* (- 1) t ) ) 0) (>= (+ (* 1024 1) (* 1 i ) ) 0) (>= (+ (* 1023 1) (* (- 1) i ) ) 0) (>= (+ (* 1024 1) (* 1 j ) ) 0) (>= (+ (* 1023 1) (* (- 1) j ) ) 0) ) (>= (+ (* 1 c_0 ) (* 1 c_1 i ) (* 1 c_2 j ) (* 1 c_3 t ) ) 0) )))
(assert (forall ((t Real) (i Real) (j Real) ) (=> (and (>= (+ (* 1023 1) (* (- 1) j ) ) 0) (>= (+ (* 1024 1) (* 1 j ) ) 0) (>= (+ (* 1023 1) (* (- 1) i ) ) 0) (>= (+ (* 1024 1) (* 1 i ) ) 0) (>= (+ (* 1023 1) (* (- 1) t ) ) 0) (>= (+ (* 1024 1) (* 1 t ) ) 0) (>= (+ (* 1 i s_1 ) (* 1 j s_2 ) (* 1 s_0 ) (* 1 s_3 t ) ) 0) ) (>= (+ (* 1 i s_5 ) (* 1 j s_6 ) (* 1 s_4 ) ) 0) )))
(assert (forall ((t Real) (i Real) (j Real) ) (=> (and (>= (+ (* 1023 1) (* (- 1) j ) ) 0) (>= (+ (* 1024 1) (* 1 j ) ) 0) (>= (+ (* 1023 1) (* (- 1) i ) ) 0) (>= (+ (* 1024 1) (* 1 i ) ) 0) (>= (+ (* 1023 1) (* (- 1) t ) ) 0) (>= (+ (* 1024 1) (* 1 t ) ) 0) (>= (+ (* 1 i s_1 ) (* 1 j s_2 ) (* 1 s_0 ) (* 1 s_3 t ) ) 0) ) (>= (+ (* 1 c_4 ) (* 1 c_5 i ) (* 1 c_6 j ) ) 0) )))
(assert (forall ((t Real) (i Real) (j Real) ) (=> (and (>= (+ (* 1023 1) (* (- 1) j ) ) 0) (>= (+ (* 1024 1) (* 1 j ) ) 0) (>= (+ (* 1023 1) (* (- 1) i ) ) 0) (>= (+ (* 1024 1) (* 1 i ) ) 0) (>= (+ (* 1023 1) (* (- 1) t ) ) 0) (>= (+ (* 1024 1) (* 1 t ) ) 0) (>= (+ (* 1 i s_1 ) (* 1 j s_2 ) (* 1 s_0 ) (* 1 s_3 t ) ) 0) ) (>= (+ (* (- 1) 1) (* 1 c_0 ) (* 1 c_1 i ) (* 1 c_2 j ) (* 1 c_3 t ) (* (- 1) c_4 ) (* (- 1) c_5 i ) (* (- 1) c_6 j ) ) 0) )))
(assert (forall ((t Real) (i Real) (j Real) ) (=> (and (>= (+ (* (- 1) 1) (* (- 1) i ) (* 1 j ) ) 0) (>= (+ (* (- 1) 1) (* 1 i ) ) 0) (>= (+ (* (- 1) 1) (* 1 j ) ) 0) (>= (* 1 t ) 0) (>= (+ (* 1 i s_5 ) (* 1 j s_6 ) (* 1 s_4 ) (* 1 s_7 t ) ) 0) ) (>= (+ (* 1 i s_6 ) (* 1 i s_7 ) (* 1 j s_5 ) (* 1 s_4 ) ) 0) )))
(assert (forall ((t Real) (i Real) (j Real) ) (=> (and (>= (+ (* (- 1) 1) (* (- 1) i ) (* 1 j ) ) 0) (>= (+ (* (- 1) 1) (* 1 i ) ) 0) (>= (+ (* (- 1) 1) (* 1 j ) ) 0) (>= (* 1 t ) 0) (>= (+ (* 1 i s_5 ) (* 1 j s_6 ) (* 1 s_4 ) (* 1 s_7 t ) ) 0) ) (>= (+ (* 1 c_4 ) (* 1 c_5 j ) (* 1 c_6 i ) (* 1 c_7 i ) ) 0) )))
(assert (forall ((t Real) (i Real) (j Real) ) (=> (and (>= (+ (* (- 1) 1) (* (- 1) i ) (* 1 j ) ) 0) (>= (+ (* (- 1) 1) (* 1 i ) ) 0) (>= (+ (* (- 1) 1) (* 1 j ) ) 0) (>= (* 1 t ) 0) (>= (+ (* 1 i s_5 ) (* 1 j s_6 ) (* 1 s_4 ) (* 1 s_7 t ) ) 0) ) (>= (+ (* (- 1) 1) (* 1 c_5 i ) (* (- 1) c_5 j ) (* (- 1) c_6 i ) (* 1 c_6 j ) (* (- 1) c_7 i ) (* 1 c_7 t ) ) 0) )))
(assert (forall ((t Real) (i Real) (j Real) ) (=> (and (>= (+ (* (- 1) 1) (* 1 i ) (* (- 1) j ) ) 0) (>= (+ (* 1 i ) (* (- 1) j ) ) 0) (>= (+ (* (- 1) 1) (* 1 i ) ) 0) (>= (+ (* (- 1) 1) (* 1 j ) ) 0) (>= (* 1 t ) 0) (>= (+ (* 1 i s_5 ) (* 1 j s_6 ) (* 1 s_4 ) (* 1 s_7 t ) ) 0) ) (>= (+ (* 1 i s_5 ) (* 1 i s_6 ) (* 1 s_4 ) (* 1 s_7 t ) ) 0) )))
(assert (forall ((t Real) (i Real) (j Real) ) (=> (and (>= (+ (* (- 1) 1) (* 1 i ) (* (- 1) j ) ) 0) (>= (+ (* 1 i ) (* (- 1) j ) ) 0) (>= (+ (* (- 1) 1) (* 1 i ) ) 0) (>= (+ (* (- 1) 1) (* 1 j ) ) 0) (>= (* 1 t ) 0) (>= (+ (* 1 i s_5 ) (* 1 j s_6 ) (* 1 s_4 ) (* 1 s_7 t ) ) 0) ) (>= (+ (* 1 c_4 ) (* 1 c_5 i ) (* 1 c_6 i ) (* 1 c_7 t ) ) 0) )))
(assert (forall ((t Real) (i Real) (j Real) ) (=> (and (>= (+ (* (- 1) 1) (* 1 i ) (* (- 1) j ) ) 0) (>= (+ (* 1 i ) (* (- 1) j ) ) 0) (>= (+ (* (- 1) 1) (* 1 i ) ) 0) (>= (+ (* (- 1) 1) (* 1 j ) ) 0) (>= (* 1 t ) 0) (>= (+ (* 1 i s_5 ) (* 1 j s_6 ) (* 1 s_4 ) (* 1 s_7 t ) ) 0) ) (>= (+ (* (- 1) 1) (* (- 1) c_6 i ) (* 1 c_6 j ) ) 0) )))
(assert (forall ((t Real) (i Real) (j Real) ) (=> (and (>= (+ (* (- 1) i ) (* 1 j ) ) 0) (>= (+ (* 1 i ) (* (- 1) j ) ) 0) (>= (+ (* (- 1) 1) (* 1 i ) ) 0) (>= (+ (* (- 1) 1) (* 1 j ) ) 0) (>= (* 1 t ) 0) (>= (+ (* 1 i s_5 ) (* 1 j s_6 ) (* 1 s_4 ) (* 1 s_7 t ) ) 0) ) (>= (+ (* 1 i s_5 ) (* 1 j s_6 ) (* 1 s_4 ) (* (- 1) s_5 ) (* 1 s_7 t ) ) 0) )))
(assert (forall ((t Real) (i Real) (j Real) ) (=> (and (>= (+ (* (- 1) i ) (* 1 j ) ) 0) (>= (+ (* 1 i ) (* (- 1) j ) ) 0) (>= (+ (* (- 1) 1) (* 1 i ) ) 0) (>= (+ (* (- 1) 1) (* 1 j ) ) 0) (>= (* 1 t ) 0) (>= (+ (* 1 i s_5 ) (* 1 j s_6 ) (* 1 s_4 ) (* 1 s_7 t ) ) 0) ) (>= (+ (* 1 c_4 ) (* (- 1) c_5 ) (* 1 c_5 i ) (* 1 c_6 j ) (* 1 c_7 t ) ) 0) )))
(assert (forall ((t Real) (i Real) (j Real) ) (=> (and (>= (+ (* (- 1) i ) (* 1 j ) ) 0) (>= (+ (* 1 i ) (* (- 1) j ) ) 0) (>= (+ (* (- 1) 1) (* 1 i ) ) 0) (>= (+ (* (- 1) 1) (* 1 j ) ) 0) (>= (* 1 t ) 0) (>= (+ (* 1 i s_5 ) (* 1 j s_6 ) (* 1 s_4 ) (* 1 s_7 t ) ) 0) ) (>= (+ (* (- 1) 1) (* 1 c_5 ) ) 0) )))
(assert (forall ((t Real) (i Real) (j Real) ) (=> (and (>= (* (- 1) i ) 0) (>= (* 1 t ) 0) (>= (+ (* 1 i s_5 ) (* 1 j s_6 ) (* 1 s_4 ) (* 1 s_7 t ) ) 0) ) (>= (+ (* 1 i s_9 ) (* 1 j s_10 ) (* 1 s_11 t ) (* 1 s_8 ) ) 0) )))
(assert (forall ((t Real) (i Real) (j Real) ) (=> (and (>= (* (- 1) i ) 0) (>= (* 1 t ) 0) (>= (+ (* 1 i s_5 ) (* 1 j s_6 ) (* 1 s_4 ) (* 1 s_7 t ) ) 0) ) (>= (+ (* 1 c_10 j ) (* 1 c_11 t ) (* 1 c_8 ) (* 1 c_9 i ) ) 0) )))
(assert (forall ((t Real) (i Real) (j Real) ) (=> (and (>= (* (- 1) j ) 0) (>= (* 1 t ) 0) (>= (+ (* 1 i s_5 ) (* 1 j s_6 ) (* 1 s_4 ) (* 1 s_7 t ) ) 0) ) (>= (+ (* 1 i s_9 ) (* 1 j s_10 ) (* 1 s_11 t ) (* 1 s_8 ) ) 0) )))
(assert (forall ((t Real) (i Real) (j Real) ) (=> (and (>= (* (- 1) j ) 0) (>= (* 1 t ) 0) (>= (+ (* 1 i s_5 ) (* 1 j s_6 ) (* 1 s_4 ) (* 1 s_7 t ) ) 0) ) (>= (+ (* 1 c_10 j ) (* 1 c_11 t ) (* 1 c_8 ) (* 1 c_9 i ) ) 0) )))

(check-sat)
(get-model)
